\Problem name: tsp

Minimize
OBJROW: 83 x_0_1 + 81 x_0_2 + 113 x_0_3 + 52 x_0_4 + 42 x_0_5 + 73 x_0_6 + 44 x_0_7 + 23 x_0_8 + 91 x_0_9 + 105 x_0_10
 + 90 x_0_11 + 124 x_0_12 + 57 x_0_13 + 83 x_1_0 + 161 x_1_2 + 160 x_1_3 + 39 x_1_4 + 89 x_1_5 + 151 x_1_6 + 110 x_1_7
 + 90 x_1_8 + 99 x_1_9 + 177 x_1_10 + 143 x_1_11 + 193 x_1_12 + 100 x_1_13 + 81 x_2_0 + 161 x_2_1 + 90 x_2_3 + 125 x_2_4
 + 82 x_2_5 + 13 x_2_6 + 57 x_2_7 + 71 x_2_8 + 123 x_2_9 + 38 x_2_10 + 72 x_2_11 + 59 x_2_12 + 82 x_2_13 + 113 x_3_0
 + 160 x_3_1 + 90 x_3_2 + 123 x_3_4 + 77 x_3_5 + 81 x_3_6 + 71 x_3_7 + 91 x_3_8 + 72 x_3_9 + 64 x_3_10 + 24 x_3_11
 + 62 x_3_12 + 63 x_3_13 + 52 x_4_0 + 39 x_4_1 + 125 x_4_2 + 123 x_4_3 + 51 x_4_5 + 114 x_4_6 + 72 x_4_7 + 54 x_4_8
 + 69 x_4_9 + 139 x_4_10 + 105 x_4_11 + 155 x_4_12 + 62 x_4_13 + 42 x_5_0 + 89 x_5_1 + 82 x_5_2 + 77 x_5_3 + 51 x_5_4
 + 70 x_5_6 + 25 x_5_7 + 22 x_5_8 + 52 x_5_9 + 90 x_5_10 + 56 x_5_11 + 105 x_5_12 + 16 x_5_13 + 73 x_6_0 + 151 x_6_1
 + 13 x_6_2 + 81 x_6_3 + 114 x_6_4 + 70 x_6_5 + 45 x_6_7 + 61 x_6_8 + 111 x_6_9 + 36 x_6_10 + 61 x_6_11 + 57 x_6_12
 + 70 x_6_13 + 44 x_7_0 + 110 x_7_1 + 57 x_7_2 + 71 x_7_3 + 72 x_7_4 + 25 x_7_5 + 45 x_7_6 + 23 x_7_8 + 71 x_7_9
 + 67 x_7_10 + 48 x_7_11 + 85 x_7_12 + 29 x_7_13 + 23 x_8_0 + 90 x_8_1 + 71 x_8_2 + 91 x_8_3 + 54 x_8_4 + 22 x_8_5
 + 61 x_8_6 + 23 x_8_7 + 74 x_8_9 + 89 x_8_10 + 69 x_8_11 + 107 x_8_12 + 36 x_8_13 + 91 x_9_0 + 99 x_9_1 + 123 x_9_2
 + 72 x_9_3 + 69 x_9_4 + 52 x_9_5 + 111 x_9_6 + 71 x_9_7 + 74 x_9_8 + 117 x_9_10 + 65 x_9_11 + 125 x_9_12 + 43 x_9_13
 + 105 x_10_0 + 177 x_10_1 + 38 x_10_2 + 64 x_10_3 + 139 x_10_4 + 90 x_10_5 + 36 x_10_6 + 67 x_10_7 + 89 x_10_8 + 117 x_10_9
 + 54 x_10_11 + 22 x_10_12 + 84 x_10_13 + 90 x_11_0 + 143 x_11_1 + 72 x_11_2 + 24 x_11_3 + 105 x_11_4 + 56 x_11_5 + 61 x_11_6
 + 48 x_11_7 + 69 x_11_8 + 65 x_11_9 + 54 x_11_10 + 60 x_11_12 + 44 x_11_13 + 124 x_12_0 + 193 x_12_1 + 59 x_12_2 + 62 x_12_3
 + 155 x_12_4 + 105 x_12_5 + 57 x_12_6 + 85 x_12_7 + 107 x_12_8 + 125 x_12_9 + 22 x_12_10 + 60 x_12_11 + 97 x_12_13 + 57 x_13_0
 + 100 x_13_1 + 82 x_13_2 + 63 x_13_3 + 62 x_13_4 + 16 x_13_5 + 70 x_13_6 + 29 x_13_7 + 36 x_13_8 + 43 x_13_9 + 84 x_13_10
 + 44 x_13_11 + 97 x_13_12
Subject To
Out_0:  x_0_1 + x_0_2 + x_0_3 + x_0_4 + x_0_5 + x_0_6 + x_0_7 + x_0_8 + x_0_9 + x_0_10
 + x_0_11 + x_0_12 + x_0_13 = 1
Out_1:  x_1_0 + x_1_2 + x_1_3 + x_1_4 + x_1_5 + x_1_6 + x_1_7 + x_1_8 + x_1_9 + x_1_10
 + x_1_11 + x_1_12 + x_1_13 = 1
Out_2:  x_2_0 + x_2_1 + x_2_3 + x_2_4 + x_2_5 + x_2_6 + x_2_7 + x_2_8 + x_2_9 + x_2_10
 + x_2_11 + x_2_12 + x_2_13 = 1
Out_3:  x_3_0 + x_3_1 + x_3_2 + x_3_4 + x_3_5 + x_3_6 + x_3_7 + x_3_8 + x_3_9 + x_3_10
 + x_3_11 + x_3_12 + x_3_13 = 1
Out_4:  x_4_0 + x_4_1 + x_4_2 + x_4_3 + x_4_5 + x_4_6 + x_4_7 + x_4_8 + x_4_9 + x_4_10
 + x_4_11 + x_4_12 + x_4_13 = 1
Out_5:  x_5_0 + x_5_1 + x_5_2 + x_5_3 + x_5_4 + x_5_6 + x_5_7 + x_5_8 + x_5_9 + x_5_10
 + x_5_11 + x_5_12 + x_5_13 = 1
Out_6:  x_6_0 + x_6_1 + x_6_2 + x_6_3 + x_6_4 + x_6_5 + x_6_7 + x_6_8 + x_6_9 + x_6_10
 + x_6_11 + x_6_12 + x_6_13 = 1
Out_7:  x_7_0 + x_7_1 + x_7_2 + x_7_3 + x_7_4 + x_7_5 + x_7_6 + x_7_8 + x_7_9 + x_7_10
 + x_7_11 + x_7_12 + x_7_13 = 1
Out_8:  x_8_0 + x_8_1 + x_8_2 + x_8_3 + x_8_4 + x_8_5 + x_8_6 + x_8_7 + x_8_9 + x_8_10
 + x_8_11 + x_8_12 + x_8_13 = 1
Out_9:  x_9_0 + x_9_1 + x_9_2 + x_9_3 + x_9_4 + x_9_5 + x_9_6 + x_9_7 + x_9_8 + x_9_10
 + x_9_11 + x_9_12 + x_9_13 = 1
Out_10:  x_10_0 + x_10_1 + x_10_2 + x_10_3 + x_10_4 + x_10_5 + x_10_6 + x_10_7 + x_10_8 + x_10_9
 + x_10_11 + x_10_12 + x_10_13 = 1
Out_11:  x_11_0 + x_11_1 + x_11_2 + x_11_3 + x_11_4 + x_11_5 + x_11_6 + x_11_7 + x_11_8 + x_11_9
 + x_11_10 + x_11_12 + x_11_13 = 1
Out_12:  x_12_0 + x_12_1 + x_12_2 + x_12_3 + x_12_4 + x_12_5 + x_12_6 + x_12_7 + x_12_8 + x_12_9
 + x_12_10 + x_12_11 + x_12_13 = 1
Out_13:  x_13_0 + x_13_1 + x_13_2 + x_13_3 + x_13_4 + x_13_5 + x_13_6 + x_13_7 + x_13_8 + x_13_9
 + x_13_10 + x_13_11 + x_13_12 = 1
In_0:  x_1_0 + x_2_0 + x_3_0 + x_4_0 + x_5_0 + x_6_0 + x_7_0 + x_8_0 + x_9_0 + x_10_0
 + x_11_0 + x_12_0 + x_13_0 = 1
In_1:  x_0_1 + x_2_1 + x_3_1 + x_4_1 + x_5_1 + x_6_1 + x_7_1 + x_8_1 + x_9_1 + x_10_1
 + x_11_1 + x_12_1 + x_13_1 = 1
In_2:  x_0_2 + x_1_2 + x_3_2 + x_4_2 + x_5_2 + x_6_2 + x_7_2 + x_8_2 + x_9_2 + x_10_2
 + x_11_2 + x_12_2 + x_13_2 = 1
In_3:  x_0_3 + x_1_3 + x_2_3 + x_4_3 + x_5_3 + x_6_3 + x_7_3 + x_8_3 + x_9_3 + x_10_3
 + x_11_3 + x_12_3 + x_13_3 = 1
In_4:  x_0_4 + x_1_4 + x_2_4 + x_3_4 + x_5_4 + x_6_4 + x_7_4 + x_8_4 + x_9_4 + x_10_4
 + x_11_4 + x_12_4 + x_13_4 = 1
In_5:  x_0_5 + x_1_5 + x_2_5 + x_3_5 + x_4_5 + x_6_5 + x_7_5 + x_8_5 + x_9_5 + x_10_5
 + x_11_5 + x_12_5 + x_13_5 = 1
In_6:  x_0_6 + x_1_6 + x_2_6 + x_3_6 + x_4_6 + x_5_6 + x_7_6 + x_8_6 + x_9_6 + x_10_6
 + x_11_6 + x_12_6 + x_13_6 = 1
In_7:  x_0_7 + x_1_7 + x_2_7 + x_3_7 + x_4_7 + x_5_7 + x_6_7 + x_8_7 + x_9_7 + x_10_7
 + x_11_7 + x_12_7 + x_13_7 = 1
In_8:  x_0_8 + x_1_8 + x_2_8 + x_3_8 + x_4_8 + x_5_8 + x_6_8 + x_7_8 + x_9_8 + x_10_8
 + x_11_8 + x_12_8 + x_13_8 = 1
In_9:  x_0_9 + x_1_9 + x_2_9 + x_3_9 + x_4_9 + x_5_9 + x_6_9 + x_7_9 + x_8_9 + x_10_9
 + x_11_9 + x_12_9 + x_13_9 = 1
In_10:  x_0_10 + x_1_10 + x_2_10 + x_3_10 + x_4_10 + x_5_10 + x_6_10 + x_7_10 + x_8_10 + x_9_10
 + x_11_10 + x_12_10 + x_13_10 = 1
In_11:  x_0_11 + x_1_11 + x_2_11 + x_3_11 + x_4_11 + x_5_11 + x_6_11 + x_7_11 + x_8_11 + x_9_11
 + x_10_11 + x_12_11 + x_13_11 = 1
In_12:  x_0_12 + x_1_12 + x_2_12 + x_3_12 + x_4_12 + x_5_12 + x_6_12 + x_7_12 + x_8_12 + x_9_12
 + x_10_12 + x_11_12 + x_13_12 = 1
In_13:  x_0_13 + x_1_13 + x_2_13 + x_3_13 + x_4_13 + x_5_13 + x_6_13 + x_7_13 + x_8_13 + x_9_13
 + x_10_13 + x_11_13 + x_12_13 = 1
Bounds
 0 <= x_0_0 <= 1
 0 <= x_0_1 <= 1
 0 <= x_0_2 <= 1
 0 <= x_0_3 <= 1
 0 <= x_0_4 <= 1
 0 <= x_0_5 <= 1
 0 <= x_0_6 <= 1
 0 <= x_0_7 <= 1
 0 <= x_0_8 <= 1
 0 <= x_0_9 <= 1
 0 <= x_0_10 <= 1
 0 <= x_0_11 <= 1
 0 <= x_0_12 <= 1
 0 <= x_0_13 <= 1
 0 <= x_1_0 <= 1
 0 <= x_1_1 <= 1
 0 <= x_1_2 <= 1
 0 <= x_1_3 <= 1
 0 <= x_1_4 <= 1
 0 <= x_1_5 <= 1
 0 <= x_1_6 <= 1
 0 <= x_1_7 <= 1
 0 <= x_1_8 <= 1
 0 <= x_1_9 <= 1
 0 <= x_1_10 <= 1
 0 <= x_1_11 <= 1
 0 <= x_1_12 <= 1
 0 <= x_1_13 <= 1
 0 <= x_2_0 <= 1
 0 <= x_2_1 <= 1
 0 <= x_2_2 <= 1
 0 <= x_2_3 <= 1
 0 <= x_2_4 <= 1
 0 <= x_2_5 <= 1
 0 <= x_2_6 <= 1
 0 <= x_2_7 <= 1
 0 <= x_2_8 <= 1
 0 <= x_2_9 <= 1
 0 <= x_2_10 <= 1
 0 <= x_2_11 <= 1
 0 <= x_2_12 <= 1
 0 <= x_2_13 <= 1
 0 <= x_3_0 <= 1
 0 <= x_3_1 <= 1
 0 <= x_3_2 <= 1
 0 <= x_3_3 <= 1
 0 <= x_3_4 <= 1
 0 <= x_3_5 <= 1
 0 <= x_3_6 <= 1
 0 <= x_3_7 <= 1
 0 <= x_3_8 <= 1
 0 <= x_3_9 <= 1
 0 <= x_3_10 <= 1
 0 <= x_3_11 <= 1
 0 <= x_3_12 <= 1
 0 <= x_3_13 <= 1
 0 <= x_4_0 <= 1
 0 <= x_4_1 <= 1
 0 <= x_4_2 <= 1
 0 <= x_4_3 <= 1
 0 <= x_4_4 <= 1
 0 <= x_4_5 <= 1
 0 <= x_4_6 <= 1
 0 <= x_4_7 <= 1
 0 <= x_4_8 <= 1
 0 <= x_4_9 <= 1
 0 <= x_4_10 <= 1
 0 <= x_4_11 <= 1
 0 <= x_4_12 <= 1
 0 <= x_4_13 <= 1
 0 <= x_5_0 <= 1
 0 <= x_5_1 <= 1
 0 <= x_5_2 <= 1
 0 <= x_5_3 <= 1
 0 <= x_5_4 <= 1
 0 <= x_5_5 <= 1
 0 <= x_5_6 <= 1
 0 <= x_5_7 <= 1
 0 <= x_5_8 <= 1
 0 <= x_5_9 <= 1
 0 <= x_5_10 <= 1
 0 <= x_5_11 <= 1
 0 <= x_5_12 <= 1
 0 <= x_5_13 <= 1
 0 <= x_6_0 <= 1
 0 <= x_6_1 <= 1
 0 <= x_6_2 <= 1
 0 <= x_6_3 <= 1
 0 <= x_6_4 <= 1
 0 <= x_6_5 <= 1
 0 <= x_6_6 <= 1
 0 <= x_6_7 <= 1
 0 <= x_6_8 <= 1
 0 <= x_6_9 <= 1
 0 <= x_6_10 <= 1
 0 <= x_6_11 <= 1
 0 <= x_6_12 <= 1
 0 <= x_6_13 <= 1
 0 <= x_7_0 <= 1
 0 <= x_7_1 <= 1
 0 <= x_7_2 <= 1
 0 <= x_7_3 <= 1
 0 <= x_7_4 <= 1
 0 <= x_7_5 <= 1
 0 <= x_7_6 <= 1
 0 <= x_7_7 <= 1
 0 <= x_7_8 <= 1
 0 <= x_7_9 <= 1
 0 <= x_7_10 <= 1
 0 <= x_7_11 <= 1
 0 <= x_7_12 <= 1
 0 <= x_7_13 <= 1
 0 <= x_8_0 <= 1
 0 <= x_8_1 <= 1
 0 <= x_8_2 <= 1
 0 <= x_8_3 <= 1
 0 <= x_8_4 <= 1
 0 <= x_8_5 <= 1
 0 <= x_8_6 <= 1
 0 <= x_8_7 <= 1
 0 <= x_8_8 <= 1
 0 <= x_8_9 <= 1
 0 <= x_8_10 <= 1
 0 <= x_8_11 <= 1
 0 <= x_8_12 <= 1
 0 <= x_8_13 <= 1
 0 <= x_9_0 <= 1
 0 <= x_9_1 <= 1
 0 <= x_9_2 <= 1
 0 <= x_9_3 <= 1
 0 <= x_9_4 <= 1
 0 <= x_9_5 <= 1
 0 <= x_9_6 <= 1
 0 <= x_9_7 <= 1
 0 <= x_9_8 <= 1
 0 <= x_9_9 <= 1
 0 <= x_9_10 <= 1
 0 <= x_9_11 <= 1
 0 <= x_9_12 <= 1
 0 <= x_9_13 <= 1
 0 <= x_10_0 <= 1
 0 <= x_10_1 <= 1
 0 <= x_10_2 <= 1
 0 <= x_10_3 <= 1
 0 <= x_10_4 <= 1
 0 <= x_10_5 <= 1
 0 <= x_10_6 <= 1
 0 <= x_10_7 <= 1
 0 <= x_10_8 <= 1
 0 <= x_10_9 <= 1
 0 <= x_10_10 <= 1
 0 <= x_10_11 <= 1
 0 <= x_10_12 <= 1
 0 <= x_10_13 <= 1
 0 <= x_11_0 <= 1
 0 <= x_11_1 <= 1
 0 <= x_11_2 <= 1
 0 <= x_11_3 <= 1
 0 <= x_11_4 <= 1
 0 <= x_11_5 <= 1
 0 <= x_11_6 <= 1
 0 <= x_11_7 <= 1
 0 <= x_11_8 <= 1
 0 <= x_11_9 <= 1
 0 <= x_11_10 <= 1
 0 <= x_11_11 <= 1
 0 <= x_11_12 <= 1
 0 <= x_11_13 <= 1
 0 <= x_12_0 <= 1
 0 <= x_12_1 <= 1
 0 <= x_12_2 <= 1
 0 <= x_12_3 <= 1
 0 <= x_12_4 <= 1
 0 <= x_12_5 <= 1
 0 <= x_12_6 <= 1
 0 <= x_12_7 <= 1
 0 <= x_12_8 <= 1
 0 <= x_12_9 <= 1
 0 <= x_12_10 <= 1
 0 <= x_12_11 <= 1
 0 <= x_12_12 <= 1
 0 <= x_12_13 <= 1
 0 <= x_13_0 <= 1
 0 <= x_13_1 <= 1
 0 <= x_13_2 <= 1
 0 <= x_13_3 <= 1
 0 <= x_13_4 <= 1
 0 <= x_13_5 <= 1
 0 <= x_13_6 <= 1
 0 <= x_13_7 <= 1
 0 <= x_13_8 <= 1
 0 <= x_13_9 <= 1
 0 <= x_13_10 <= 1
 0 <= x_13_11 <= 1
 0 <= x_13_12 <= 1
 0 <= x_13_13 <= 1
Integers
x_0_0 x_0_1 x_0_2 x_0_3 x_0_4 x_0_5 x_0_6 x_0_7 x_0_8 x_0_9 
x_0_10 x_0_11 x_0_12 x_0_13 x_1_0 x_1_1 x_1_2 x_1_3 x_1_4 x_1_5 
x_1_6 x_1_7 x_1_8 x_1_9 x_1_10 x_1_11 x_1_12 x_1_13 x_2_0 x_2_1 
x_2_2 x_2_3 x_2_4 x_2_5 x_2_6 x_2_7 x_2_8 x_2_9 x_2_10 x_2_11 
x_2_12 x_2_13 x_3_0 x_3_1 x_3_2 x_3_3 x_3_4 x_3_5 x_3_6 x_3_7 
x_3_8 x_3_9 x_3_10 x_3_11 x_3_12 x_3_13 x_4_0 x_4_1 x_4_2 x_4_3 
x_4_4 x_4_5 x_4_6 x_4_7 x_4_8 x_4_9 x_4_10 x_4_11 x_4_12 x_4_13 
x_5_0 x_5_1 x_5_2 x_5_3 x_5_4 x_5_5 x_5_6 x_5_7 x_5_8 x_5_9 
x_5_10 x_5_11 x_5_12 x_5_13 x_6_0 x_6_1 x_6_2 x_6_3 x_6_4 x_6_5 
x_6_6 x_6_7 x_6_8 x_6_9 x_6_10 x_6_11 x_6_12 x_6_13 x_7_0 x_7_1 
x_7_2 x_7_3 x_7_4 x_7_5 x_7_6 x_7_7 x_7_8 x_7_9 x_7_10 x_7_11 
x_7_12 x_7_13 x_8_0 x_8_1 x_8_2 x_8_3 x_8_4 x_8_5 x_8_6 x_8_7 
x_8_8 x_8_9 x_8_10 x_8_11 x_8_12 x_8_13 x_9_0 x_9_1 x_9_2 x_9_3 
x_9_4 x_9_5 x_9_6 x_9_7 x_9_8 x_9_9 x_9_10 x_9_11 x_9_12 x_9_13 
x_10_0 x_10_1 x_10_2 x_10_3 x_10_4 x_10_5 x_10_6 x_10_7 x_10_8 x_10_9 
x_10_10 x_10_11 x_10_12 x_10_13 x_11_0 x_11_1 x_11_2 x_11_3 x_11_4 x_11_5 
x_11_6 x_11_7 x_11_8 x_11_9 x_11_10 x_11_11 x_11_12 x_11_13 x_12_0 x_12_1 
x_12_2 x_12_3 x_12_4 x_12_5 x_12_6 x_12_7 x_12_8 x_12_9 x_12_10 x_12_11 
x_12_12 x_12_13 x_13_0 x_13_1 x_13_2 x_13_3 x_13_4 x_13_5 x_13_6 x_13_7 
x_13_8 x_13_9 x_13_10 x_13_11 x_13_12 x_13_13 
End
